Route #1: 1 52 24 21 69 38 58 72 17
Route #2: 43 67 56 8 71 22 15
Route #3: 12 34 46 45 51
Route #4: 3 54 20 31 73 76 32 7
Route #5: 75 57 29 70 37 30 65
Route #6: 47 27 49 5 63 2
Route #7: 62 61 13 48 39 50
Route #8: 33 55 35 59 4 9
Route #9: 6 74 28 19 36 14 41 60 66 16 42
Route #10: 25 10 18 68 53 40 64 11 26
Route #11: 44 23 77
Cost 1307